tsp_instances/TSP20/instance23.tsp
NODE_COORD_SECTION
0 17 32
1 140 30
2 149 0
3 151 149
4 179 26
5 178 77
6 122 17
7 147 175
8 174 70
9 89 149
10 65 177
11 123 178
12 198 64
13 152 46
14 159 3
15 160 98
16 167 0
17 3 57
18 96 186
19 48 62
