tsp_instances/TSP20/instance23.opt.tour
TOUR_SECTION
1
7
2
14
3
15
17
5
13
9
6
16
4
8
12
19
11
10
20
18
-1